solution status: optimal solution found
objective value:                                   29
x53                                                 1 	(obj:1)
x54                                                 1 	(obj:1)
x57                                                 1 	(obj:1)
x59                                                 1 	(obj:1)
x61                                                 1 	(obj:1)
x66                                                 1 	(obj:1)
x71                                                 1 	(obj:1)
x72                                                 1 	(obj:1)
x73                                                 1 	(obj:1)
x74                                                 1 	(obj:1)
x76                                                 1 	(obj:1)
x81                                                 1 	(obj:1)
x82                                                 1 	(obj:1)
x84                                                 1 	(obj:1)
x86                                                 1 	(obj:1)
x87                                                 1 	(obj:1)
x89                                                 1 	(obj:1)
x93                                                 1 	(obj:1)
x96                                                 1 	(obj:1)
x97                                                 1 	(obj:1)
x98                                                 1 	(obj:1)
x99                                                 1 	(obj:1)
x101                                                1 	(obj:1)
x103                                                1 	(obj:1)
x107                                                1 	(obj:1)
x108                                                1 	(obj:1)
x110                                                1 	(obj:1)
x112                                                1 	(obj:1)
x116                                                1 	(obj:1)
thing.thing.chamber[2].thingy.v10_y                   23 	(obj:0)
thing.thing.chamber[2].thingy.v10_z                   21 	(obj:0)
thing.bead_flush_hole_y                            19 	(obj:0)
thing.bead_flush_hole_z                            19 	(obj:0)
thing.thing.chamber[2].thingy.v11_y                   22 	(obj:0)
thing.thing.chamber[2].thingy.v11_z                   23 	(obj:0)
thing.thing.chamber[2].thingy.r4c_y                   20 	(obj:0)
thing.thing.chamber[2].thingy.r4c_z                   19 	(obj:0)
thing.thing.chamber[1].thingy.p2_y                   24 	(obj:0)
thing.thing.chamber[1].thingy.p2_z                   20 	(obj:0)
thing.thing.chamber[0].thingy.p1_y                   24 	(obj:0)
thing.thing.chamber[0].thingy.p1_z                   21 	(obj:0)
thing.thing.chamber[1].thingy.v12_y                   21 	(obj:0)
thing.thing.chamber[1].thingy.v12_z                   20 	(obj:0)
thing.thing.chamber[2].thingy.r2c_y                   19 	(obj:0)
thing.thing.chamber[2].thingy.r2c_z                   20 	(obj:0)
thing.thing.chamber[1].thingy.p0_y                   22 	(obj:0)
thing.thing.chamber[1].thingy.p0_z                   20 	(obj:0)
thing.thing.dead_cell_y                            19 	(obj:0)
thing.thing.dead_cell_z                            23 	(obj:0)
thing.bead_trap_ctrl_hole_y                        17 	(obj:0)
thing.bead_trap_ctrl_hole_z                        18 	(obj:0)
thing.thing.chamber[2].thingy.p0_y                   22 	(obj:0)
thing.thing.chamber[2].thingy.p0_z                   22 	(obj:0)
thing.pump0_hole_y                                 24 	(obj:0)
thing.pump0_hole_z                                 17 	(obj:0)
thing.pump2_hole_y                                 20 	(obj:0)
thing.pump2_hole_z                                 17 	(obj:0)
thing.thing.chamber[1].thingy.v13_y                   21 	(obj:0)
thing.thing.chamber[1].thingy.v13_z                   22 	(obj:0)
thing.thing.dead_buffer_y                          20 	(obj:0)
thing.thing.dead_buffer_z                          24 	(obj:0)
thing.thing.dead_bead_y                            22 	(obj:0)
thing.thing.dead_bead_z                            21 	(obj:0)
thing.thing.chamber[0].thingy.v12_y                   21 	(obj:0)
thing.thing.chamber[0].thingy.v12_z                   21 	(obj:0)
thing.horiz_flush_hole_y                           15 	(obj:0)
thing.horiz_flush_hole_z                           19 	(obj:0)
thing.thing.chamber[0].thingy.v13_y                   20 	(obj:0)
thing.thing.chamber[0].thingy.v13_z                   22 	(obj:0)
thing.thing.chamber[2].thingy.r1c_y                   23 	(obj:0)
thing.thing.chamber[2].thingy.r1c_z                   19 	(obj:0)
thing.thing.chamber[1].thingy.r1c_y                   20 	(obj:0)
thing.thing.chamber[1].thingy.r1c_z                   18 	(obj:0)
